
******************************************************************************
This program contains Ipopt, a library for large-scale nonlinear optimization.
 Ipopt is released as open source code under the Eclipse Public License (EPL).
         For more information visit http://projects.coin-or.org/Ipopt
******************************************************************************

This is Ipopt version 3.12.3, running with linear solver mumps.
NOTE: Other linear solvers might be more efficient (see Ipopt documentation).

Number of nonzeros in equality constraint Jacobian...:   192417
Number of nonzeros in inequality constraint Jacobian.:    40541
Number of nonzeros in Lagrangian Hessian.............:    48453

Total number of variables............................:    40541
                     variables with only lower bounds:        0
                variables with lower and upper bounds:        0
                     variables with only upper bounds:        0
Total number of equality constraints.................:    36456
Total number of inequality constraints...............:    40541
        inequality constraints with only lower bounds:        0
   inequality constraints with lower and upper bounds:    40541
        inequality constraints with only upper bounds:        0

iter    objective    inf_pr   inf_du lg(mu)  ||d||  lg(rg) alpha_du alpha_pr  ls
   0 3.1273915e+000 7.58e-001 2.24e-001  -1.0 0.00e+000    -  0.00e+000 0.00e+000   0
   1 6.2853684e+000 7.31e-001 4.05e+001  -1.0 1.58e+000    -  1.11e-001 2.57e-001f  1
   2 2.1511531e+001 4.01e+001 4.52e+001  -1.0 1.26e+000    -  2.10e-001 5.17e-001f  1
   3 3.5758077e+001 2.50e+001 9.37e+001  -1.0 1.73e+000    -  9.64e-002 4.70e-001f  1
   4 3.9721743e+001 2.11e+001 1.07e+002  -1.0 1.68e+000    -  7.40e-002 1.68e-001f  1
   5 4.1535826e+001 1.29e+001 2.56e+003  -1.0 1.29e+000   2.0 5.10e-001 4.42e-001f  1
   6 4.1608240e+001 1.24e+001 2.48e+003  -1.0 4.89e-001   2.4 1.00e+000 3.26e-002h  1
   7 4.1843844e+001 1.10e+001 2.28e+003  -1.0 4.37e-001   2.9 1.00e+000 1.20e-001h  1
   8 4.2405359e+001 8.08e+000 1.62e+003  -1.0 4.56e-001   2.4 1.00e+000 2.78e-001h  1
   9 4.3085187e+001 5.90e+000 9.98e+002  -1.0 5.83e-001   1.9 8.91e-002 2.81e-001f  1
iter    objective    inf_pr   inf_du lg(mu)  ||d||  lg(rg) alpha_du alpha_pr  ls
  10 4.3131636e+001 5.70e+000 9.63e+002  -1.0 1.78e-001   2.3 1.00e+000 3.47e-002h  1
  11 4.4358614e+001 2.72e+000 3.59e+002  -1.0 2.86e-001   1.8 8.43e-001 5.55e-001f  1
  12 4.5665047e+001 3.10e+000 2.89e+002  -1.0 2.12e+000   1.4 1.53e-003 2.12e-001f  1
  13 4.5830959e+001 2.52e+000 2.38e+002  -1.0 2.98e-001   1.8 2.54e-001 2.15e-001f  1
  14 4.7600428e+001 1.64e+000 1.67e+002  -1.0 3.94e-001   1.3 1.56e-001 4.96e-001f  1
  15 4.8999589e+001 6.52e-002 3.94e+001  -1.0 1.07e-001   1.7 1.00e+000 1.00e+000f  1
  16 5.2436680e+001 1.76e-002 2.76e+000  -1.0 3.23e-002   1.3 9.89e-001 1.00e+000f  1
  17 5.9545980e+001 8.21e-002 5.08e-001  -1.0 5.79e-002   0.8 1.00e+000 1.00e+000f  1
  18 4.6101749e+001 3.47e-001 5.70e-001  -1.7 8.01e-002   0.3 1.00e+000 1.00e+000f  1
  19 3.3232788e+001 4.77e-001 4.73e-001  -1.7 1.77e-001  -0.2 1.00e+000 1.00e+000f  1
iter    objective    inf_pr   inf_du lg(mu)  ||d||  lg(rg) alpha_du alpha_pr  ls
  20 3.1172571e+001 3.82e-002 6.58e-002  -1.7 3.50e-002   0.3 1.00e+000 1.00e+000f  1
  21 2.0413667e+001 2.70e-001 2.15e-001  -2.5 9.76e-002  -0.2 9.92e-001 1.00e+000f  1
  22 1.7371109e+001 5.51e-002 7.33e-002  -2.5 4.12e-002   0.2 1.00e+000 1.00e+000f  1
  23 1.3864115e+001 1.16e-001 1.48e-001  -2.5 7.86e-002  -0.3 1.00e+000 9.68e-001f  1
  24 1.3075156e+001 9.15e-003 3.81e-002  -2.5 2.64e-002   0.2 1.00e+000 1.00e+000h  1
  25 1.1831042e+001 2.99e-002 4.66e-002  -2.5 5.75e-002  -0.3 1.00e+000 1.00e+000f  1
  26 1.1512250e+001 2.24e-003 2.61e-002  -2.5 2.03e-002   0.1 1.00e+000 1.00e+000h  1
  27 9.7248442e+000 5.52e-002 4.41e-002  -3.8 5.13e-002  -0.4 9.84e-001 9.32e-001f  1
  28 9.2768940e+000 2.15e-002 3.40e-002  -3.8 2.17e-002   0.1 1.00e+000 7.96e-001h  1
  29 8.8993040e+000 2.08e-002 7.39e-002  -3.8 6.55e-002  -0.4 1.00e+000 4.08e-001f  1
iter    objective    inf_pr   inf_du lg(mu)  ||d||  lg(rg) alpha_du alpha_pr  ls
  30 8.6439216e+000 9.76e-003 2.55e-002  -3.8 2.57e-002   0.0 1.00e+000 7.66e-001h  1
  31 8.3717883e+000 1.17e-002 7.42e-002  -3.8 7.01e-002  -0.5 1.00e+000 4.22e-001f  1
  32 8.1564999e+000 5.65e-003 2.26e-002  -3.8 2.50e-002  -0.0 1.00e+000 9.42e-001f  1
  33 7.9281007e+000 2.28e-002 6.10e-002  -3.8 9.39e-002  -0.5 1.00e+000 4.96e-001f  1
  34 7.7670884e+000 8.19e-003 2.10e-002  -3.8 2.62e-002  -0.1 1.00e+000 1.00e+000f  1
  35 7.5888806e+000 2.79e-002 6.87e-002  -3.8 9.05e-002  -0.6 1.00e+000 5.19e-001h  1
  36 7.4666423e+000 2.26e-002 3.94e-002  -3.8 5.53e-002  -0.1 1.00e+000 1.00e+000f  1
  37 7.4199377e+000 8.71e-003 5.20e-002  -3.8 2.74e-002   0.3 1.00e+000 1.00e+000h  1
  38 7.3093339e+000 1.05e-001 1.32e-001  -3.8 1.11e-001  -0.2 1.00e+000 8.74e-001f  1
  39 7.1973397e+000 2.23e-001 1.38e-001  -3.8 2.69e-001  -0.7 1.00e+000 3.61e-001f  1
iter    objective    inf_pr   inf_du lg(mu)  ||d||  lg(rg) alpha_du alpha_pr  ls
  40 6.9879017e+000 3.63e-001 7.81e-001  -3.8 5.25e-001  -1.2 3.28e-001 3.66e-001f  1
  41 6.7936777e+000 9.32e-001 1.43e+000  -3.8 2.39e-001  -0.7 1.00e+000 9.18e-001h  1
  42 6.5881888e+000 4.06e-001 6.19e-001  -3.8 1.62e-001  -1.2 7.73e-001 5.76e-001h  1
  43 6.3957133e+000 3.07e-001 4.29e-001  -3.8 3.62e-001  -1.7 1.00e+000 2.93e-001h  1
  44 6.1727394e+000 4.91e-001 3.38e-001  -3.8 7.14e-001  -2.2 5.74e-001 2.03e-001h  1
  45 5.9590887e+000 2.93e-001 1.84e-001  -3.8 2.18e-001  -1.7 1.00e+000 4.55e-001h  1
  46 5.8477773e+000 1.10e-001 6.48e-002  -3.8 6.79e-002  -1.3 1.00e+000 6.50e-001h  1
  47 5.5746103e+000 2.98e-001 1.41e-002  -3.8 2.06e-001  -1.8 7.50e-001 7.78e-001h  1
  48 5.4604931e+000 5.08e-002 4.00e-002  -3.8 9.04e-002  -1.4 5.06e-001 1.00e+000h  1
  49 5.2236335e+000 3.50e-001 8.85e-002  -3.8 2.20e-001  -1.8 1.00e+000 1.00e+000h  1
iter    objective    inf_pr   inf_du lg(mu)  ||d||  lg(rg) alpha_du alpha_pr  ls
  50 5.1534537e+000 3.59e-002 1.48e-002  -3.8 9.79e-002  -1.4 1.00e+000 1.00e+000h  1
  51 5.0039791e+000 2.49e-001 9.05e-003  -3.8 1.36e-001  -1.9 1.00e+000 1.00e+000h  1
  52 4.9894687e+000 2.54e-001 2.92e-002  -3.8 6.45e+000  -2.4 9.23e-002 6.65e-002h  1
  53 4.8806827e+000 2.22e-001 6.72e-003  -3.8 1.89e-001  -1.9 1.00e+000 1.00e+000h  1
  54 4.7448041e+000 7.26e-001 9.27e-003  -3.8 1.30e-001  -2.4 1.00e+000 1.00e+000h  1
  55 4.7131694e+000 3.67e-002 8.09e-004  -3.8 4.78e-002  -2.0 1.00e+000 1.00e+000h  1
  56 4.6740816e+000 1.06e-001 7.99e-004  -3.8 7.38e-002  -2.5 1.00e+000 1.00e+000h  1
  57 4.6647543e+000 1.11e-002 2.19e-004  -3.8 2.40e-002  -2.0 1.00e+000 1.00e+000h  1
  58 4.6534951e+000 7.92e-002 3.72e-004  -3.8 5.58e-002  -2.5 1.00e+000 1.00e+000h  1
  59 4.6508010e+000 1.96e-002 1.86e-004  -3.8 2.07e-002  -2.1 1.00e+000 1.00e+000h  1
iter    objective    inf_pr   inf_du lg(mu)  ||d||  lg(rg) alpha_du alpha_pr  ls
  60 4.6506981e+000 4.85e-001 6.99e-003  -3.8 9.92e+000  -2.6 5.69e-002 1.07e-002h  4
  61 4.6486125e+000 8.49e-002 6.66e-003  -3.8 7.78e-002  -2.1 1.00e+000 1.00e+000h  1
  62 4.6477922e+000 3.46e-002 2.15e-003  -3.8 4.84e-002  -1.7 1.00e+000 1.00e+000h  1
  63 4.6458818e+000 1.38e+000 2.43e-002  -3.8 2.98e-001  -2.2 1.00e+000 1.00e+000h  1
  64 4.6436529e+000 2.74e+000 5.53e-002  -3.8 3.38e-001  -2.7 1.00e+000 1.00e+000h  1
  65 4.6425081e+000 7.73e+000 2.77e-001  -3.8 4.04e-001  -2.2 1.00e+000 1.00e+000h  1
  66 4.6413617e+000 2.67e+000 8.15e-002  -3.8 2.41e-001  -1.8 1.00e+000 1.00e+000h  1
  67 4.6409140e+000 1.60e-001 6.80e-003  -3.8 6.47e-002  -2.3 1.00e+000 1.00e+000h  1
  68 4.6402262e+000 2.01e-001 6.10e-003  -3.8 1.82e-001  -2.8 1.00e+000 1.00e+000h  1
  69 4.6399876e+000 5.20e-002 1.63e-003  -3.8 2.05e-001  -3.2 1.00e+000 1.00e+000h  1
iter    objective    inf_pr   inf_du lg(mu)  ||d||  lg(rg) alpha_du alpha_pr  ls
  70 4.6399081e+000 1.60e-003 2.66e-004  -3.8 4.86e-002  -2.8 1.00e+000 1.00e+000h  1
  71 4.5032461e+000 3.92e-002 7.79e-003  -5.7 1.99e+000  -3.3 3.51e-001 1.59e-001f  1
  72 4.0066062e+000 3.76e-001 2.90e-002  -5.7 4.15e-001  -2.9 1.33e-001 7.64e-001h  1
  73 3.9599925e+000 1.86e-001 1.47e-002  -5.7 4.54e-002  -1.5 6.31e-001 5.10e-001h  1
  74 3.8888379e+000 1.13e-001 7.94e-003  -5.7 2.51e-001  -2.0 5.86e-001 4.41e-001h  1
  75 3.8225218e+000 9.86e-002 1.72e-002  -5.7 2.77e-001  -2.5 7.17e-001 2.72e-001h  1
  76 3.8037102e+000 9.34e-002 1.80e-002  -5.7 3.59e+000  -3.0 2.22e-001 6.31e-002h  1
  77 3.7514677e+000 7.24e-002 2.18e-002  -5.7 1.53e-001  -2.6 1.00e+000 2.77e-001h  1
  78 3.7098543e+000 4.77e-002 1.40e-002  -5.7 6.84e-002  -2.1 1.00e+000 4.79e-001h  1
  79 3.6594324e+000 4.39e-002 8.08e-003  -5.7 1.79e-001  -2.6 9.27e-001 4.30e-001h  1
iter    objective    inf_pr   inf_du lg(mu)  ||d||  lg(rg) alpha_du alpha_pr  ls
  80 3.6427609e+000 3.05e-002 4.90e-003  -5.7 2.80e-001  -2.2 6.55e-001 3.91e-001h  1
  81 3.6376516e+000 4.70e-002 9.12e-003  -5.7 8.12e-001  -1.7 9.40e-001 2.30e-001h  1
  82 3.6277061e+000 2.92e-002 2.54e-002  -5.7 1.57e-001  -1.3 4.15e-003 1.00e+000h  1
  83 3.6187240e+000 3.20e-002 1.19e-002  -5.7 2.46e-001  -1.8 1.00e+000 5.32e-001h  1
  84 3.6083542e+000 8.10e-002 8.00e-003  -5.7 5.43e-001  -2.3 7.36e-001 3.28e-001f  1
  85 3.5985756e+000 6.05e-002 5.78e-003  -5.7 2.07e-001  -2.8 5.33e-001 2.86e-001h  1
  86 3.5882056e+000 3.23e-002 1.89e-003  -5.7 8.24e-002  -2.3 1.00e+000 6.90e-001h  1
  87 3.5836570e+000 3.33e-003 3.36e-004  -5.7 2.69e-002  -1.9 1.00e+000 1.00e+000h  1
  88 3.5813200e+000 3.24e-003 2.84e-003  -5.7 7.17e-002  -2.4 1.00e+000 3.40e-001h  1
  89 3.5786210e+000 2.99e-003 2.82e-004  -5.7 2.47e-002  -2.0 1.00e+000 1.00e+000f  1
iter    objective    inf_pr   inf_du lg(mu)  ||d||  lg(rg) alpha_du alpha_pr  ls
  90 3.5744270e+000 4.92e-002 1.18e-003  -5.7 1.09e-001  -2.4 1.00e+000 1.00e+000h  1
  91 3.5731431e+000 8.36e-003 1.38e-003  -5.7 3.83e-002  -2.0 1.00e+000 1.00e+000h  1
  92 3.5712049e+000 3.22e-002 1.04e-003  -5.7 1.14e-001  -2.5 1.00e+000 1.00e+000h  1
  93 3.5706048e+000 2.67e-003 3.21e-004  -5.7 3.66e-002  -2.1 1.00e+000 1.00e+000h  1
  94 3.5701389e+000 2.30e-001 1.75e-002  -5.7 5.80e-001  -2.5 1.00e+000 4.07e-001h  1
  95 3.5674954e+000 4.02e-001 2.27e-002  -5.7 1.01e+000  -2.1 6.88e-001 5.49e-001h  1
  96 3.5661797e+000 1.76e-001 2.07e-002  -5.7 2.13e-001  -2.6 5.03e-001 7.64e-001h  1
  97 3.5649621e+000 1.03e-001 6.47e-003  -5.7 4.80e-001  -3.1 8.02e-001 4.15e-001f  1
  98 3.5639687e+000 4.24e-002 2.96e-003  -5.7 1.31e-001  -2.6 1.00e+000 1.00e+000h  1
  99 3.5627372e+000 3.66e-001 3.11e-003  -5.7 3.11e-001  -3.1 1.00e+000 9.19e-001h  1
iter    objective    inf_pr   inf_du lg(mu)  ||d||  lg(rg) alpha_du alpha_pr  ls
 100 3.5622697e+000 1.25e-001 5.04e-004  -5.7 5.83e-002  -2.7 1.00e+000 8.85e-001h  1
 101 3.5619601e+000 1.31e-001 7.37e-004  -5.7 1.18e-001  -3.2 6.10e-001 4.16e-001h  1
 102 3.5616818e+000 7.64e-002 1.30e-004  -5.7 5.05e-002  -2.7 1.00e+000 1.00e+000f  1
 103 3.5615797e+000 1.24e-002 8.79e-005  -5.7 1.80e-002  -2.3 1.00e+000 1.00e+000h  1
 104 3.5613369e+000 6.75e-002 5.06e-004  -5.7 6.10e-002  -2.8 1.00e+000 1.00e+000h  1
 105 3.5612075e+000 1.31e-002 3.30e-004  -5.7 2.59e-002  -2.4 1.00e+000 1.00e+000h  1
 106 3.5610714e+000 2.12e-002 1.43e-003  -5.7 2.26e-001  -2.8 6.17e-001 4.43e-001h  1
 107 3.5609313e+000 1.08e-002 3.30e-004  -5.7 3.35e-002  -2.4 1.00e+000 1.00e+000f  1
 108 3.5606492e+000 6.74e-002 1.28e-003  -5.7 1.09e-001  -2.9 8.09e-001 1.00e+000h  1
 109 3.5604294e+000 9.42e-002 4.98e-003  -5.7 1.75e-001  -3.4 1.00e+000 4.87e-001h  1
iter    objective    inf_pr   inf_du lg(mu)  ||d||  lg(rg) alpha_du alpha_pr  ls
 110 3.5602718e+000 5.27e-002 1.56e-004  -5.7 1.14e-001  -2.9 1.00e+000 1.00e+000f  1
 111 3.5601257e+000 4.36e-002 1.59e-003  -5.7 6.74e-001  -3.4 7.39e-001 3.53e-001h  1
 112 3.5599954e+000 1.81e-002 1.57e-004  -5.7 4.44e-002  -3.0 1.00e+000 1.00e+000f  1
 113 3.5596619e+000 5.80e-001 5.19e-003  -5.7 2.68e-001  -3.5 5.56e-001 1.00e+000h  1
 114 3.5590980e+000 5.81e-001 2.28e-003  -5.7 1.81e-001  -3.0 1.00e+000 1.00e+000h  1
 115 3.5585729e+000 1.15e+000 3.64e-003  -5.7 2.40e+000  -3.5 7.16e-002 7.83e-002h  1
 116 3.5585549e+000 1.08e+000 3.44e-003  -5.7 2.99e+000  -4.0 3.17e-002 5.67e-002h  1
 117 3.5584935e+000 1.01e+000 3.19e-003  -5.7 3.19e-001  -4.5 6.16e-001 7.29e-002h  1
 118 3.5583571e+000 4.93e-001 1.45e-003  -5.7 9.09e-002  -4.1 1.00e+000 5.47e-001h  1
 119 3.5582985e+000 4.76e-002 1.49e-003  -5.7 4.76e-002  -3.6 2.63e-001 9.09e-001h  1
iter    objective    inf_pr   inf_du lg(mu)  ||d||  lg(rg) alpha_du alpha_pr  ls
 120 3.5582912e+000 1.81e-002 5.17e-004  -5.7 1.20e-002  -3.2 6.58e-001 6.49e-001f  1
 121 3.5582693e+000 4.18e-003 5.41e-004  -5.7 9.54e-002  -3.7 7.42e-001 1.00e+000f  1
 122 3.5582280e+000 4.60e-002 5.62e-004  -5.7 2.71e-001  -4.2 9.09e-001 1.00e+000h  1
 123 3.5581982e+000 9.14e-003 5.21e-005  -5.7 9.68e-002  -3.7 1.00e+000 1.00e+000h  1
 124 3.5581627e+000 1.26e-001 1.02e-003  -5.7 4.60e-001    -  1.00e+000 3.84e-001h  2
 125 3.5581508e+000 4.80e-003 7.76e-005  -5.7 4.29e-002  -3.3 1.00e+000 1.00e+000h  1
 126 3.5581479e+000 4.75e-003 1.22e-003  -5.7 1.83e+001    -  6.11e-002 1.04e-002h  2
 127 3.5581342e+000 6.21e-003 9.44e-005  -5.7 9.01e-002    -  1.00e+000 1.00e+000h  1
 128 3.5581367e+000 1.04e-005 2.05e-006  -5.7 5.57e-003  -3.8 1.00e+000 1.00e+000h  1
 129 3.5533070e+000 7.05e-002 2.06e-003  -7.0 9.95e-001  -4.3 5.41e-001 4.06e-001f  1
iter    objective    inf_pr   inf_du lg(mu)  ||d||  lg(rg) alpha_du alpha_pr  ls
 130 3.5493943e+000 3.41e-002 4.79e-003  -7.0 3.36e-001  -2.9 7.50e-003 6.06e-001h  1
 131 3.5477568e+000 1.66e-002 3.85e-003  -7.0 1.11e-001  -3.4 3.87e-001 5.55e-001h  1
 132 3.5473279e+000 1.51e-002 1.77e-003  -7.0 4.66e-001  -3.9 6.41e-001 2.86e-001h  1
 133 3.5465309e+000 1.17e-002 1.40e-003  -7.0 9.15e-002  -3.5 1.00e+000 7.69e-001f  1
 134 3.5462526e+000 2.84e-002 4.84e-004  -7.0 1.01e-001  -3.9 1.00e+000 8.26e-001h  1
 135 3.5462014e+000 6.48e-002 7.23e-004  -7.0 1.95e-001    -  6.77e-001 4.48e-001h  1
 136 3.5461980e+000 5.86e-002 7.04e-004  -7.0 1.31e+000    -  1.10e-001 6.85e-002h  2
 137 3.5461666e+000 4.43e-004 1.54e-005  -7.0 3.28e-002  -3.5 1.00e+000 1.00e+000h  1
 138 3.5461621e+000 7.96e-003 4.90e-004  -7.0 3.34e+000    -  1.75e-001 3.43e-002h  2
 139 3.5461508e+000 4.67e-002 1.41e-004  -7.0 8.06e-002    -  8.16e-001 1.00e+000h  1
iter    objective    inf_pr   inf_du lg(mu)  ||d||  lg(rg) alpha_du alpha_pr  ls
 140 3.5461511e+000 3.10e-004 2.65e-006  -7.0 2.16e-002  -4.0 1.00e+000 1.00e+000h  1
 141 3.5461485e+000 8.39e-003 3.80e-005  -7.0 1.04e-001  -4.5 1.00e+000 1.00e+000H  1
 142 3.5461500e+000 4.45e-004 4.44e-005  -7.0 4.36e-002    -  3.90e-001 1.00e+000h  1
 143 3.5461502e+000 5.75e-003 3.94e-005  -7.0 1.27e-001    -  1.00e+000 1.00e+000H  1
 144 3.5461504e+000 2.82e-003 2.32e-005  -7.0 3.67e-002    -  3.74e-001 5.00e-001h  2
 145 3.5461495e+000 2.88e-004 2.12e-005  -7.0 6.27e-002    -  1.00e+000 1.00e+000H  1
 146 3.5461493e+000 2.99e-004 6.29e-006  -7.0 3.61e-002    -  1.00e+000 1.00e+000h  1
 147 3.5461493e+000 1.18e-005 1.17e-007  -7.0 5.82e-003    -  1.00e+000 1.00e+000h  1
 148 3.5461493e+000 4.54e-008 3.97e-010  -7.0 3.33e-004    -  1.00e+000 1.00e+000h  1

Number of Iterations....: 148

                                   (scaled)                 (unscaled)
Objective...............:  3.5461493208202350e+000   3.5461493208202350e+000
Dual infeasibility......:  3.9661175384081266e-010   3.9661175384081266e-010
Constraint violation....:  4.5364331485719944e-008   4.5364331485719944e-008
Complementarity.........:  9.0909196172739988e-008   9.0909196172739988e-008
Overall NLP error.......:  9.0909196172739988e-008   9.0909196172739988e-008


Number of objective function evaluations             = 167
Number of objective gradient evaluations             = 149
Number of equality constraint evaluations            = 167
Number of inequality constraint evaluations          = 167
Number of equality constraint Jacobian evaluations   = 149
Number of inequality constraint Jacobian evaluations = 149
Number of Lagrangian Hessian evaluations             = 148
Total CPU secs in IPOPT (w/o function evaluations)   =     53.275
Total CPU secs in NLP function evaluations           =      7.560

EXIT: Optimal Solution Found.
               t_proc [s]   t_wall [s]    n_eval
       nlp_f         0.11        0.109       167
       nlp_g         0.67        0.672       167
  nlp_grad_f        0.171        0.172       150
  nlp_hess_l         2.95         2.95       148
   nlp_jac_g         3.55         3.55       150
      solver         60.8         60.8         1
